% Logging successfully configured
%%%mzn-stat: initTime=0.005352332
%%%mzn-stat: objective=1104
%%%mzn-stat: nodes=313
%%%mzn-stat: restarts=0
%%%mzn-stat: peakDepth=311
%%%mzn-stat: solveTime=0.001974126
%%%mzn-stat: variables=806
%%%mzn-stat: propagators=486
%%%mzn-stat: failures=1
%%%mzn-stat: propagations=1616
%%%mzn-stat: nogoods=1
%%%mzn-stat: numAtomicConstraintsPropagated=0
%%%mzn-stat: allDifferentNumber1PropagationsTotal=54
%%%mzn-stat: allDifferentNumber1PropagationsThatFoundConflict=0
%%%mzn-stat: allDifferentNumber1PropagationsThatPruned=28
%%%mzn-stat: allDifferentNumber1TotalValuesPruned=158
%%%mzn-stat: allDifferentNumber1TotalHallSetSizeConflict=0
%%%mzn-stat: allDifferentNumber1NumberOfConflicts=0
%%%mzn-stat: allDifferentNumber1MaxHallSetSizeConflict=0
%%%mzn-stat: allDifferentNumber1TotalPruningHallSetSize=421
%%%mzn-stat: allDifferentNumber1NumberOfPruningExplanations=158
%%%mzn-stat: allDifferentNumber1MaxPruningHallSetSize=23
%%%mzn-stat: allDifferentNumber1TotalFixedEdgesAtConflict=0
%%%mzn-stat: allDifferentNumber1TotalVarsInvolvedInPruning=132
%%%mzn-stat: allDifferentNumber1MaxValuesPrunedFromSingleVar=4
%%%mzn-stat: allDifferentNumber1TotalSccSizeAtPruning=128
%%%mzn-stat: allDifferentNumber1NumberOfSccPruningCalls=28
%%%mzn-stat: circuitNumber2PropagationsThatFoundConflict=1
%%%mzn-stat: circuitNumber2TotalFixedEdgesAtConflict=50
%%%mzn-stat: circuitNumber2NumberOfConflicts=1
%%%mzn-stat: circuitNumber2PropagationsThatPruned=1
%%%mzn-stat: circuitNumber2PropagationsTotal=29
%%%mzn-stat: AverageConflictSize=16
%%%mzn-stat: NumUnitNogoodsLearned=0
%%%mzn-stat: AverageLearnedNogoodLength=25
%%%mzn-stat: AverageBacktrackAmount=0
%%%mzn-stat: AverageLbd=12
%%%mzn-stat: 2AutonomousSearchNumBackupCalled=287
%%%mzn-stat: 2AutonomousSearchNumPredicatesRemoved=0
%%%mzn-stat: 2AutonomousSearchNumCalls=288
%%%mzn-stat: 2AutonomousSearchNumPredicatesAdded=35
%%%mzn-stat: 2AutonomousSearchAverageSizeOfHeap=0.12152777777777778
%%%mzn-stat: 2AutonomousSearchNumAssignedPredicatesEncountered=35
%%%mzn-stat-end
maxleg = 1104;
succ = array1d(1..50,[9, 6, 1, 15, 7, 17, 11, 25, 10, 18, 8, 13, 14, 5, 19, 30, 20, 23, 22, 43, 4, 46, 37, 44, 36, 35, 29, 45, 50, 2, 26, 42, 28, 47, 21, 34, 41, 33, 31, 39, 24, 16, 48, 49, 12, 3, 40, 38, 27, 32]);
% time elapsed: 0.26 s
----------
%%%mzn-stat: initTime=0.005352332
%%%mzn-stat: objective=1072
%%%mzn-stat: nodes=617
%%%mzn-stat: restarts=0
%%%mzn-stat: peakDepth=311
%%%mzn-stat: solveTime=0.003561689
%%%mzn-stat: variables=806
%%%mzn-stat: propagators=486
%%%mzn-stat: failures=1
%%%mzn-stat: propagations=2441
%%%mzn-stat: nogoods=1
%%%mzn-stat: numAtomicConstraintsPropagated=0
%%%mzn-stat: allDifferentNumber1PropagationsTotal=98
%%%mzn-stat: allDifferentNumber1PropagationsThatFoundConflict=0
%%%mzn-stat: allDifferentNumber1PropagationsThatPruned=50
%%%mzn-stat: allDifferentNumber1TotalValuesPruned=304
%%%mzn-stat: allDifferentNumber1TotalHallSetSizeConflict=0
%%%mzn-stat: allDifferentNumber1NumberOfConflicts=0
%%%mzn-stat: allDifferentNumber1MaxHallSetSizeConflict=0
%%%mzn-stat: allDifferentNumber1TotalPruningHallSetSize=1038
%%%mzn-stat: allDifferentNumber1NumberOfPruningExplanations=304
%%%mzn-stat: allDifferentNumber1MaxPruningHallSetSize=42
%%%mzn-stat: allDifferentNumber1TotalFixedEdgesAtConflict=0
%%%mzn-stat: allDifferentNumber1TotalVarsInvolvedInPruning=250
%%%mzn-stat: allDifferentNumber1MaxValuesPrunedFromSingleVar=6
%%%mzn-stat: allDifferentNumber1TotalSccSizeAtPruning=311
%%%mzn-stat: allDifferentNumber1NumberOfSccPruningCalls=50
%%%mzn-stat: circuitNumber2PropagationsThatFoundConflict=1
%%%mzn-stat: circuitNumber2TotalFixedEdgesAtConflict=50
%%%mzn-stat: circuitNumber2NumberOfConflicts=1
%%%mzn-stat: circuitNumber2PropagationsThatPruned=3
%%%mzn-stat: circuitNumber2PropagationsTotal=52
%%%mzn-stat: AverageConflictSize=16
%%%mzn-stat: NumUnitNogoodsLearned=0
%%%mzn-stat: AverageLearnedNogoodLength=25
%%%mzn-stat: AverageBacktrackAmount=0
%%%mzn-stat: AverageLbd=12
%%%mzn-stat: 2AutonomousSearchNumBackupCalled=569
%%%mzn-stat: 2AutonomousSearchNumPredicatesRemoved=0
%%%mzn-stat: 2AutonomousSearchNumCalls=571
%%%mzn-stat: 2AutonomousSearchNumPredicatesAdded=35
%%%mzn-stat: 2AutonomousSearchAverageSizeOfHeap=0.12259194395796848
%%%mzn-stat: 2AutonomousSearchNumAssignedPredicatesEncountered=70
%%%mzn-stat-end
maxleg = 1072;
succ = array1d(1..50,[9, 6, 1, 15, 7, 17, 11, 25, 10, 18, 8, 13, 14, 5, 19, 30, 20, 23, 26, 22, 4, 21, 37, 16, 36, 32, 29, 45, 50, 42, 2, 35, 28, 47, 46, 27, 41, 33, 31, 39, 24, 43, 48, 49, 12, 3, 40, 38, 34, 44]);
% time elapsed: 0.26 s
----------
%%%mzn-stat: initTime=0.005352332
%%%mzn-stat: objective=1041
%%%mzn-stat: nodes=917
%%%mzn-stat: restarts=0
%%%mzn-stat: peakDepth=311
%%%mzn-stat: solveTime=0.006640653
%%%mzn-stat: variables=806
%%%mzn-stat: propagators=486
%%%mzn-stat: failures=5
%%%mzn-stat: propagations=3469
%%%mzn-stat: nogoods=5
%%%mzn-stat: numAtomicConstraintsPropagated=0
%%%mzn-stat: allDifferentNumber1PropagationsTotal=160
%%%mzn-stat: allDifferentNumber1PropagationsThatFoundConflict=1
%%%mzn-stat: allDifferentNumber1PropagationsThatPruned=85
%%%mzn-stat: allDifferentNumber1TotalValuesPruned=500
%%%mzn-stat: allDifferentNumber1TotalHallSetSizeConflict=3
%%%mzn-stat: allDifferentNumber1NumberOfConflicts=1
%%%mzn-stat: allDifferentNumber1MaxHallSetSizeConflict=3
%%%mzn-stat: allDifferentNumber1TotalPruningHallSetSize=1951
%%%mzn-stat: allDifferentNumber1NumberOfPruningExplanations=500
%%%mzn-stat: allDifferentNumber1MaxPruningHallSetSize=42
%%%mzn-stat: allDifferentNumber1TotalFixedEdgesAtConflict=46
%%%mzn-stat: allDifferentNumber1TotalVarsInvolvedInPruning=402
%%%mzn-stat: allDifferentNumber1MaxValuesPrunedFromSingleVar=6
%%%mzn-stat: allDifferentNumber1TotalSccSizeAtPruning=549
%%%mzn-stat: allDifferentNumber1NumberOfSccPruningCalls=85
%%%mzn-stat: circuitNumber2PropagationsThatFoundConflict=4
%%%mzn-stat: circuitNumber2TotalFixedEdgesAtConflict=197
%%%mzn-stat: circuitNumber2NumberOfConflicts=4
%%%mzn-stat: circuitNumber2PropagationsThatPruned=10
%%%mzn-stat: circuitNumber2PropagationsTotal=87
%%%mzn-stat: AverageConflictSize=23.6
%%%mzn-stat: NumUnitNogoodsLearned=0
%%%mzn-stat: AverageLearnedNogoodLength=31.8
%%%mzn-stat: AverageBacktrackAmount=0
%%%mzn-stat: AverageLbd=16
%%%mzn-stat: 2AutonomousSearchNumBackupCalled=844
%%%mzn-stat: 2AutonomousSearchNumPredicatesRemoved=0
%%%mzn-stat: 2AutonomousSearchNumCalls=847
%%%mzn-stat: 2AutonomousSearchNumPredicatesAdded=433
%%%mzn-stat: 2AutonomousSearchAverageSizeOfHeap=0.5678866587957497
%%%mzn-stat: 2AutonomousSearchNumAssignedPredicatesEncountered=481
%%%mzn-stat-end
maxleg = 1041;
succ = array1d(1..50,[9, 6, 1, 15, 7, 17, 11, 43, 10, 18, 8, 13, 14, 5, 19, 30, 20, 28, 26, 22, 4, 21, 25, 23, 37, 35, 33, 45, 50, 2, 44, 42, 49, 29, 46, 27, 47, 36, 31, 39, 24, 16, 48, 34, 12, 3, 40, 38, 41, 32]);
% time elapsed: 0.26 s
----------
%%%mzn-stat: initTime=0.005352332
%%%mzn-stat: objective=980
%%%mzn-stat: nodes=1208
%%%mzn-stat: restarts=0
%%%mzn-stat: peakDepth=311
%%%mzn-stat: solveTime=0.008675251
%%%mzn-stat: variables=806
%%%mzn-stat: propagators=486
%%%mzn-stat: failures=6
%%%mzn-stat: propagations=4348
%%%mzn-stat: nogoods=6
%%%mzn-stat: numAtomicConstraintsPropagated=0
%%%mzn-stat: allDifferentNumber1PropagationsTotal=210
%%%mzn-stat: allDifferentNumber1PropagationsThatFoundConflict=1
%%%mzn-stat: allDifferentNumber1PropagationsThatPruned=112
%%%mzn-stat: allDifferentNumber1TotalValuesPruned=656
%%%mzn-stat: allDifferentNumber1TotalHallSetSizeConflict=3
%%%mzn-stat: allDifferentNumber1NumberOfConflicts=1
%%%mzn-stat: allDifferentNumber1MaxHallSetSizeConflict=3
%%%mzn-stat: allDifferentNumber1TotalPruningHallSetSize=2761
%%%mzn-stat: allDifferentNumber1NumberOfPruningExplanations=656
%%%mzn-stat: allDifferentNumber1MaxPruningHallSetSize=42
%%%mzn-stat: allDifferentNumber1TotalFixedEdgesAtConflict=46
%%%mzn-stat: allDifferentNumber1TotalVarsInvolvedInPruning=525
%%%mzn-stat: allDifferentNumber1MaxValuesPrunedFromSingleVar=6
%%%mzn-stat: allDifferentNumber1TotalSccSizeAtPruning=745
%%%mzn-stat: allDifferentNumber1NumberOfSccPruningCalls=112
%%%mzn-stat: circuitNumber2PropagationsThatFoundConflict=5
%%%mzn-stat: circuitNumber2TotalFixedEdgesAtConflict=244
%%%mzn-stat: circuitNumber2NumberOfConflicts=5
%%%mzn-stat: circuitNumber2PropagationsThatPruned=14
%%%mzn-stat: circuitNumber2PropagationsTotal=114
%%%mzn-stat: AverageConflictSize=25.833333333333332
%%%mzn-stat: NumUnitNogoodsLearned=0
%%%mzn-stat: AverageLearnedNogoodLength=33
%%%mzn-stat: AverageBacktrackAmount=0
%%%mzn-stat: AverageLbd=16.5
%%%mzn-stat: 2AutonomousSearchNumBackupCalled=1114
%%%mzn-stat: 2AutonomousSearchNumPredicatesRemoved=0
%%%mzn-stat: 2AutonomousSearchNumCalls=1118
%%%mzn-stat: 2AutonomousSearchNumPredicatesAdded=546
%%%mzn-stat: 2AutonomousSearchAverageSizeOfHeap=0.7978533094812165
%%%mzn-stat: 2AutonomousSearchNumAssignedPredicatesEncountered=892
%%%mzn-stat-end
maxleg = 980;
succ = array1d(1..50,[9, 6, 1, 15, 7, 17, 11, 43, 10, 18, 8, 13, 14, 5, 19, 30, 20, 28, 26, 22, 4, 21, 25, 23, 37, 38, 33, 45, 50, 2, 44, 35, 49, 29, 46, 27, 47, 36, 31, 39, 24, 16, 48, 34, 12, 3, 40, 42, 41, 32]);
% time elapsed: 0.26 s
----------
%%%mzn-stat: initTime=0.005352332
%%%mzn-stat: objective=925
%%%mzn-stat: nodes=1509
%%%mzn-stat: restarts=0
%%%mzn-stat: peakDepth=311
%%%mzn-stat: solveTime=0.010721429
%%%mzn-stat: variables=806
%%%mzn-stat: propagators=486
%%%mzn-stat: failures=6
%%%mzn-stat: propagations=5184
%%%mzn-stat: nogoods=6
%%%mzn-stat: numAtomicConstraintsPropagated=0
%%%mzn-stat: allDifferentNumber1PropagationsTotal=254
%%%mzn-stat: allDifferentNumber1PropagationsThatFoundConflict=1
%%%mzn-stat: allDifferentNumber1PropagationsThatPruned=135
%%%mzn-stat: allDifferentNumber1TotalValuesPruned=803
%%%mzn-stat: allDifferentNumber1TotalHallSetSizeConflict=3
%%%mzn-stat: allDifferentNumber1NumberOfConflicts=1
%%%mzn-stat: allDifferentNumber1MaxHallSetSizeConflict=3
%%%mzn-stat: allDifferentNumber1TotalPruningHallSetSize=3568
%%%mzn-stat: allDifferentNumber1NumberOfPruningExplanations=803
%%%mzn-stat: allDifferentNumber1MaxPruningHallSetSize=42
%%%mzn-stat: allDifferentNumber1TotalFixedEdgesAtConflict=46
%%%mzn-stat: allDifferentNumber1TotalVarsInvolvedInPruning=639
%%%mzn-stat: allDifferentNumber1MaxValuesPrunedFromSingleVar=7
%%%mzn-stat: allDifferentNumber1TotalSccSizeAtPruning=937
%%%mzn-stat: allDifferentNumber1NumberOfSccPruningCalls=135
%%%mzn-stat: circuitNumber2PropagationsThatFoundConflict=5
%%%mzn-stat: circuitNumber2TotalFixedEdgesAtConflict=244
%%%mzn-stat: circuitNumber2NumberOfConflicts=5
%%%mzn-stat: circuitNumber2PropagationsThatPruned=16
%%%mzn-stat: circuitNumber2PropagationsTotal=137
%%%mzn-stat: AverageConflictSize=25.833333333333332
%%%mzn-stat: NumUnitNogoodsLearned=0
%%%mzn-stat: AverageLearnedNogoodLength=33
%%%mzn-stat: AverageBacktrackAmount=0
%%%mzn-stat: AverageLbd=16.5
%%%mzn-stat: 2AutonomousSearchNumBackupCalled=1394
%%%mzn-stat: 2AutonomousSearchNumPredicatesRemoved=0
%%%mzn-stat: 2AutonomousSearchNumCalls=1399
%%%mzn-stat: 2AutonomousSearchNumPredicatesAdded=546
%%%mzn-stat: 2AutonomousSearchAverageSizeOfHeap=0.9313795568263045
%%%mzn-stat: 2AutonomousSearchNumAssignedPredicatesEncountered=1303
%%%mzn-stat-end
maxleg = 925;
succ = array1d(1..50,[9, 6, 1, 15, 7, 17, 11, 43, 10, 18, 8, 13, 14, 5, 19, 30, 20, 28, 26, 22, 4, 44, 25, 23, 37, 38, 29, 45, 50, 2, 21, 35, 34, 49, 46, 27, 47, 36, 31, 39, 24, 16, 48, 33, 12, 3, 40, 42, 41, 32]);
% time elapsed: 0.26 s
----------
%%%mzn-stat: initTime=0.005352332
%%%mzn-stat: objective=909
%%%mzn-stat: nodes=1789
%%%mzn-stat: restarts=0
%%%mzn-stat: peakDepth=311
%%%mzn-stat: solveTime=0.012600798
%%%mzn-stat: variables=806
%%%mzn-stat: propagators=486
%%%mzn-stat: failures=7
%%%mzn-stat: propagations=6065
%%%mzn-stat: nogoods=7
%%%mzn-stat: numAtomicConstraintsPropagated=0
%%%mzn-stat: allDifferentNumber1PropagationsTotal=294
%%%mzn-stat: allDifferentNumber1PropagationsThatFoundConflict=2
%%%mzn-stat: allDifferentNumber1PropagationsThatPruned=156
%%%mzn-stat: allDifferentNumber1TotalValuesPruned=967
%%%mzn-stat: allDifferentNumber1TotalHallSetSizeConflict=5
%%%mzn-stat: allDifferentNumber1NumberOfConflicts=2
%%%mzn-stat: allDifferentNumber1MaxHallSetSizeConflict=3
%%%mzn-stat: allDifferentNumber1TotalPruningHallSetSize=4684
%%%mzn-stat: allDifferentNumber1NumberOfPruningExplanations=967
%%%mzn-stat: allDifferentNumber1MaxPruningHallSetSize=49
%%%mzn-stat: allDifferentNumber1TotalFixedEdgesAtConflict=95
%%%mzn-stat: allDifferentNumber1TotalVarsInvolvedInPruning=759
%%%mzn-stat: allDifferentNumber1MaxValuesPrunedFromSingleVar=7
%%%mzn-stat: allDifferentNumber1TotalSccSizeAtPruning=1219
%%%mzn-stat: allDifferentNumber1NumberOfSccPruningCalls=156
%%%mzn-stat: circuitNumber2PropagationsThatFoundConflict=5
%%%mzn-stat: circuitNumber2TotalFixedEdgesAtConflict=244
%%%mzn-stat: circuitNumber2NumberOfConflicts=5
%%%mzn-stat: circuitNumber2PropagationsThatPruned=18
%%%mzn-stat: circuitNumber2PropagationsTotal=158
%%%mzn-stat: AverageConflictSize=22.428571428571427
%%%mzn-stat: NumUnitNogoodsLearned=0
%%%mzn-stat: AverageLearnedNogoodLength=35.57142857142857
%%%mzn-stat: AverageBacktrackAmount=0
%%%mzn-stat: AverageLbd=16.285714285714285
%%%mzn-stat: 2AutonomousSearchNumBackupCalled=1656
%%%mzn-stat: 2AutonomousSearchNumPredicatesRemoved=0
%%%mzn-stat: 2AutonomousSearchNumCalls=1662
%%%mzn-stat: 2AutonomousSearchNumPredicatesAdded=752
%%%mzn-stat: 2AutonomousSearchAverageSizeOfHeap=1.1070998796630565
%%%mzn-stat: 2AutonomousSearchNumAssignedPredicatesEncountered=1840
%%%mzn-stat-end
maxleg = 909;
succ = array1d(1..50,[9, 6, 1, 15, 7, 17, 11, 43, 19, 18, 8, 13, 14, 5, 36, 30, 20, 28, 26, 22, 4, 46, 25, 23, 37, 32, 29, 45, 50, 2, 21, 35, 34, 49, 38, 27, 47, 33, 31, 39, 24, 16, 48, 10, 12, 3, 40, 42, 41, 44]);
% time elapsed: 0.26 s
----------
%%%mzn-stat: initTime=0.005352332
%%%mzn-stat: objective=879
%%%mzn-stat: nodes=2079
%%%mzn-stat: restarts=0
%%%mzn-stat: peakDepth=311
%%%mzn-stat: solveTime=0.014454654
%%%mzn-stat: variables=806
%%%mzn-stat: propagators=486
%%%mzn-stat: failures=8
%%%mzn-stat: propagations=6964
%%%mzn-stat: nogoods=8
%%%mzn-stat: numAtomicConstraintsPropagated=0
%%%mzn-stat: allDifferentNumber1PropagationsTotal=338
%%%mzn-stat: allDifferentNumber1PropagationsThatFoundConflict=2
%%%mzn-stat: allDifferentNumber1PropagationsThatPruned=180
%%%mzn-stat: allDifferentNumber1TotalValuesPruned=1137
%%%mzn-stat: allDifferentNumber1TotalHallSetSizeConflict=5
%%%mzn-stat: allDifferentNumber1NumberOfConflicts=2
%%%mzn-stat: allDifferentNumber1MaxHallSetSizeConflict=3
%%%mzn-stat: allDifferentNumber1TotalPruningHallSetSize=5625
%%%mzn-stat: allDifferentNumber1NumberOfPruningExplanations=1137
%%%mzn-stat: allDifferentNumber1MaxPruningHallSetSize=49
%%%mzn-stat: allDifferentNumber1TotalFixedEdgesAtConflict=95
%%%mzn-stat: allDifferentNumber1TotalVarsInvolvedInPruning=890
%%%mzn-stat: allDifferentNumber1MaxValuesPrunedFromSingleVar=7
%%%mzn-stat: allDifferentNumber1TotalSccSizeAtPruning=1486
%%%mzn-stat: allDifferentNumber1NumberOfSccPruningCalls=180
%%%mzn-stat: circuitNumber2PropagationsThatFoundConflict=6
%%%mzn-stat: circuitNumber2TotalFixedEdgesAtConflict=290
%%%mzn-stat: circuitNumber2NumberOfConflicts=6
%%%mzn-stat: circuitNumber2PropagationsThatPruned=20
%%%mzn-stat: circuitNumber2PropagationsTotal=182
%%%mzn-stat: AverageConflictSize=21.375
%%%mzn-stat: NumUnitNogoodsLearned=0
%%%mzn-stat: AverageLearnedNogoodLength=36.75
%%%mzn-stat: AverageBacktrackAmount=0
%%%mzn-stat: AverageLbd=15.75
%%%mzn-stat: 2AutonomousSearchNumBackupCalled=1926
%%%mzn-stat: 2AutonomousSearchNumPredicatesRemoved=0
%%%mzn-stat: 2AutonomousSearchNumCalls=1933
%%%mzn-stat: 2AutonomousSearchNumPredicatesAdded=968
%%%mzn-stat: 2AutonomousSearchAverageSizeOfHeap=1.25504397309881
%%%mzn-stat: 2AutonomousSearchNumAssignedPredicatesEncountered=2426
%%%mzn-stat-end
maxleg = 879;
succ = array1d(1..50,[9, 6, 1, 15, 7, 17, 11, 43, 19, 18, 33, 13, 14, 5, 28, 30, 20, 23, 35, 22, 4, 46, 25, 16, 37, 32, 29, 45, 50, 2, 21, 42, 49, 47, 38, 27, 40, 36, 31, 39, 24, 8, 48, 34, 12, 3, 26, 10, 41, 44]);
% time elapsed: 0.26 s
----------
%%%mzn-stat: initTime=0.005352332
%%%mzn-stat: objective=855
%%%mzn-stat: nodes=2362
%%%mzn-stat: restarts=0
%%%mzn-stat: peakDepth=311
%%%mzn-stat: solveTime=0.015901076
%%%mzn-stat: variables=806
%%%mzn-stat: propagators=486
%%%mzn-stat: failures=8
%%%mzn-stat: propagations=7781
%%%mzn-stat: nogoods=8
%%%mzn-stat: numAtomicConstraintsPropagated=0
%%%mzn-stat: allDifferentNumber1PropagationsTotal=371
%%%mzn-stat: allDifferentNumber1PropagationsThatFoundConflict=2
%%%mzn-stat: allDifferentNumber1PropagationsThatPruned=197
%%%mzn-stat: allDifferentNumber1TotalValuesPruned=1291
%%%mzn-stat: allDifferentNumber1TotalHallSetSizeConflict=5
%%%mzn-stat: allDifferentNumber1NumberOfConflicts=2
%%%mzn-stat: allDifferentNumber1MaxHallSetSizeConflict=3
%%%mzn-stat: allDifferentNumber1TotalPruningHallSetSize=6513
%%%mzn-stat: allDifferentNumber1NumberOfPruningExplanations=1291
%%%mzn-stat: allDifferentNumber1MaxPruningHallSetSize=49
%%%mzn-stat: allDifferentNumber1TotalFixedEdgesAtConflict=95
%%%mzn-stat: allDifferentNumber1TotalVarsInvolvedInPruning=1001
%%%mzn-stat: allDifferentNumber1MaxValuesPrunedFromSingleVar=7
%%%mzn-stat: allDifferentNumber1TotalSccSizeAtPruning=1730
%%%mzn-stat: allDifferentNumber1NumberOfSccPruningCalls=197
%%%mzn-stat: circuitNumber2PropagationsThatFoundConflict=6
%%%mzn-stat: circuitNumber2TotalFixedEdgesAtConflict=290
%%%mzn-stat: circuitNumber2NumberOfConflicts=6
%%%mzn-stat: circuitNumber2PropagationsThatPruned=21
%%%mzn-stat: circuitNumber2PropagationsTotal=199
%%%mzn-stat: AverageConflictSize=21.375
%%%mzn-stat: NumUnitNogoodsLearned=0
%%%mzn-stat: AverageLearnedNogoodLength=36.75
%%%mzn-stat: AverageBacktrackAmount=0
%%%mzn-stat: AverageLbd=15.75
%%%mzn-stat: 2AutonomousSearchNumBackupCalled=2193
%%%mzn-stat: 2AutonomousSearchNumPredicatesRemoved=0
%%%mzn-stat: 2AutonomousSearchNumCalls=2201
%%%mzn-stat: 2AutonomousSearchNumPredicatesAdded=968
%%%mzn-stat: 2AutonomousSearchAverageSizeOfHeap=1.368468877782826
%%%mzn-stat: 2AutonomousSearchNumAssignedPredicatesEncountered=3012
%%%mzn-stat-end
maxleg = 855;
succ = array1d(1..50,[9, 6, 1, 15, 7, 17, 11, 43, 19, 18, 33, 13, 14, 42, 28, 30, 20, 23, 26, 22, 4, 44, 25, 16, 45, 38, 29, 3, 50, 2, 21, 35, 34, 49, 46, 27, 47, 36, 5, 39, 24, 8, 48, 10, 12, 37, 40, 31, 41, 32]);
% time elapsed: 0.26 s
----------
%%%mzn-stat: initTime=0.005352332
%%%mzn-stat: objective=846
%%%mzn-stat: nodes=2645
%%%mzn-stat: restarts=0
%%%mzn-stat: peakDepth=311
%%%mzn-stat: solveTime=0.017984151
%%%mzn-stat: variables=806
%%%mzn-stat: propagators=486
%%%mzn-stat: failures=10
%%%mzn-stat: propagations=8675
%%%mzn-stat: nogoods=10
%%%mzn-stat: numAtomicConstraintsPropagated=0
%%%mzn-stat: allDifferentNumber1PropagationsTotal=411
%%%mzn-stat: allDifferentNumber1PropagationsThatFoundConflict=4
%%%mzn-stat: allDifferentNumber1PropagationsThatPruned=217
%%%mzn-stat: allDifferentNumber1TotalValuesPruned=1451
%%%mzn-stat: allDifferentNumber1TotalHallSetSizeConflict=9
%%%mzn-stat: allDifferentNumber1NumberOfConflicts=4
%%%mzn-stat: allDifferentNumber1MaxHallSetSizeConflict=3
%%%mzn-stat: allDifferentNumber1TotalPruningHallSetSize=8317
%%%mzn-stat: allDifferentNumber1NumberOfPruningExplanations=1451
%%%mzn-stat: allDifferentNumber1MaxPruningHallSetSize=49
%%%mzn-stat: allDifferentNumber1TotalFixedEdgesAtConflict=188
%%%mzn-stat: allDifferentNumber1TotalVarsInvolvedInPruning=1110
%%%mzn-stat: allDifferentNumber1MaxValuesPrunedFromSingleVar=9
%%%mzn-stat: allDifferentNumber1TotalSccSizeAtPruning=2053
%%%mzn-stat: allDifferentNumber1NumberOfSccPruningCalls=217
%%%mzn-stat: circuitNumber2PropagationsThatFoundConflict=6
%%%mzn-stat: circuitNumber2TotalFixedEdgesAtConflict=290
%%%mzn-stat: circuitNumber2NumberOfConflicts=6
%%%mzn-stat: circuitNumber2PropagationsThatPruned=23
%%%mzn-stat: circuitNumber2PropagationsTotal=219
%%%mzn-stat: AverageConflictSize=17.5
%%%mzn-stat: NumUnitNogoodsLearned=0
%%%mzn-stat: AverageLearnedNogoodLength=35.6
%%%mzn-stat: AverageBacktrackAmount=0
%%%mzn-stat: AverageLbd=15.3
%%%mzn-stat: 2AutonomousSearchNumBackupCalled=2458
%%%mzn-stat: 2AutonomousSearchNumPredicatesRemoved=0
%%%mzn-stat: 2AutonomousSearchNumCalls=2467
%%%mzn-stat: 2AutonomousSearchNumPredicatesAdded=1235
%%%mzn-stat: 2AutonomousSearchAverageSizeOfHeap=1.5058775841102554
%%%mzn-stat: 2AutonomousSearchNumAssignedPredicatesEncountered=3715
%%%mzn-stat-end
maxleg = 846;
succ = array1d(1..50,[9, 6, 1, 15, 7, 17, 11, 43, 19, 18, 33, 13, 14, 42, 28, 30, 20, 23, 26, 22, 4, 46, 41, 16, 45, 32, 29, 3, 50, 2, 21, 35, 34, 49, 38, 27, 47, 36, 5, 39, 24, 8, 48, 10, 12, 37, 40, 31, 25, 44]);
% time elapsed: 0.26 s
----------
%%%mzn-stat: initTime=0.005352332
%%%mzn-stat: objective=808
%%%mzn-stat: nodes=2910
%%%mzn-stat: restarts=0
%%%mzn-stat: peakDepth=311
%%%mzn-stat: solveTime=0.01996977
%%%mzn-stat: variables=806
%%%mzn-stat: propagators=486
%%%mzn-stat: failures=11
%%%mzn-stat: propagations=9510
%%%mzn-stat: nogoods=11
%%%mzn-stat: numAtomicConstraintsPropagated=0
%%%mzn-stat: allDifferentNumber1PropagationsTotal=441
%%%mzn-stat: allDifferentNumber1PropagationsThatFoundConflict=4
%%%mzn-stat: allDifferentNumber1PropagationsThatPruned=234
%%%mzn-stat: allDifferentNumber1TotalValuesPruned=1606
%%%mzn-stat: allDifferentNumber1TotalHallSetSizeConflict=9
%%%mzn-stat: allDifferentNumber1NumberOfConflicts=4
%%%mzn-stat: allDifferentNumber1MaxHallSetSizeConflict=3
%%%mzn-stat: allDifferentNumber1TotalPruningHallSetSize=11016
%%%mzn-stat: allDifferentNumber1NumberOfPruningExplanations=1606
%%%mzn-stat: allDifferentNumber1MaxPruningHallSetSize=49
%%%mzn-stat: allDifferentNumber1TotalFixedEdgesAtConflict=188
%%%mzn-stat: allDifferentNumber1TotalVarsInvolvedInPruning=1200
%%%mzn-stat: allDifferentNumber1MaxValuesPrunedFromSingleVar=9
%%%mzn-stat: allDifferentNumber1TotalSccSizeAtPruning=2348
%%%mzn-stat: allDifferentNumber1NumberOfSccPruningCalls=234
%%%mzn-stat: circuitNumber2PropagationsThatFoundConflict=6
%%%mzn-stat: circuitNumber2TotalFixedEdgesAtConflict=290
%%%mzn-stat: circuitNumber2NumberOfConflicts=6
%%%mzn-stat: circuitNumber2PropagationsThatPruned=27
%%%mzn-stat: circuitNumber2PropagationsTotal=236
%%%mzn-stat: AverageConflictSize=19.727272727272727
%%%mzn-stat: NumUnitNogoodsLearned=0
%%%mzn-stat: AverageLearnedNogoodLength=36.27272727272727
%%%mzn-stat: AverageBacktrackAmount=0
%%%mzn-stat: AverageLbd=15
%%%mzn-stat: 2AutonomousSearchNumBackupCalled=2710
%%%mzn-stat: 2AutonomousSearchNumPredicatesRemoved=0
%%%mzn-stat: 2AutonomousSearchNumCalls=2720
%%%mzn-stat: 2AutonomousSearchNumPredicatesAdded=1322
%%%mzn-stat: 2AutonomousSearchAverageSizeOfHeap=1.6404411764705882
%%%mzn-stat: 2AutonomousSearchNumAssignedPredicatesEncountered=4462
%%%mzn-stat-end
maxleg = 808;
succ = array1d(1..50,[9, 6, 1, 15, 7, 17, 11, 43, 19, 18, 33, 13, 14, 42, 28, 30, 20, 48, 26, 22, 4, 46, 25, 16, 37, 32, 29, 45, 50, 2, 21, 35, 34, 49, 38, 27, 47, 36, 5, 39, 24, 8, 23, 10, 12, 3, 40, 31, 41, 44]);
% time elapsed: 0.27 s
----------
%%%mzn-stat: initTime=0.005352332
%%%mzn-stat: objective=801
%%%mzn-stat: nodes=3150
%%%mzn-stat: restarts=0
%%%mzn-stat: peakDepth=311
%%%mzn-stat: solveTime=0.0219932
%%%mzn-stat: variables=806
%%%mzn-stat: propagators=486
%%%mzn-stat: failures=12
%%%mzn-stat: propagations=10386
%%%mzn-stat: nogoods=12
%%%mzn-stat: numAtomicConstraintsPropagated=0
%%%mzn-stat: allDifferentNumber1PropagationsTotal=464
%%%mzn-stat: allDifferentNumber1PropagationsThatFoundConflict=4
%%%mzn-stat: allDifferentNumber1PropagationsThatPruned=249
%%%mzn-stat: allDifferentNumber1TotalValuesPruned=1778
%%%mzn-stat: allDifferentNumber1TotalHallSetSizeConflict=9
%%%mzn-stat: allDifferentNumber1NumberOfConflicts=4
%%%mzn-stat: allDifferentNumber1MaxHallSetSizeConflict=3
%%%mzn-stat: allDifferentNumber1TotalPruningHallSetSize=14086
%%%mzn-stat: allDifferentNumber1NumberOfPruningExplanations=1778
%%%mzn-stat: allDifferentNumber1MaxPruningHallSetSize=49
%%%mzn-stat: allDifferentNumber1TotalFixedEdgesAtConflict=188
%%%mzn-stat: allDifferentNumber1TotalVarsInvolvedInPruning=1292
%%%mzn-stat: allDifferentNumber1MaxValuesPrunedFromSingleVar=9
%%%mzn-stat: allDifferentNumber1TotalSccSizeAtPruning=2698
%%%mzn-stat: allDifferentNumber1NumberOfSccPruningCalls=249
%%%mzn-stat: circuitNumber2PropagationsThatFoundConflict=7
%%%mzn-stat: circuitNumber2TotalFixedEdgesAtConflict=337
%%%mzn-stat: circuitNumber2NumberOfConflicts=7
%%%mzn-stat: circuitNumber2PropagationsThatPruned=32
%%%mzn-stat: circuitNumber2PropagationsTotal=251
%%%mzn-stat: AverageConflictSize=19.083333333333332
%%%mzn-stat: NumUnitNogoodsLearned=0
%%%mzn-stat: AverageLearnedNogoodLength=35.5
%%%mzn-stat: AverageBacktrackAmount=0
%%%mzn-stat: AverageLbd=14.083333333333334
%%%mzn-stat: 2AutonomousSearchNumBackupCalled=2943
%%%mzn-stat: 2AutonomousSearchNumPredicatesRemoved=0
%%%mzn-stat: 2AutonomousSearchNumCalls=2954
%%%mzn-stat: 2AutonomousSearchNumPredicatesAdded=1406
%%%mzn-stat: 2AutonomousSearchAverageSizeOfHeap=1.7843601895734598
%%%mzn-stat: 2AutonomousSearchNumAssignedPredicatesEncountered=5271
%%%mzn-stat-end
maxleg = 801;
succ = array1d(1..50,[9, 6, 1, 33, 7, 17, 11, 45, 18, 15, 8, 13, 14, 42, 28, 30, 20, 48, 26, 22, 4, 46, 25, 16, 19, 32, 29, 3, 50, 2, 21, 35, 34, 49, 38, 27, 47, 36, 5, 39, 24, 43, 23, 10, 12, 37, 40, 31, 41, 44]);
% time elapsed: 0.28 s
----------
%%%mzn-stat: initTime=0.005352332
%%%mzn-stat: objective=793
%%%mzn-stat: nodes=3405
%%%mzn-stat: restarts=0
%%%mzn-stat: peakDepth=311
%%%mzn-stat: solveTime=0.024202186
%%%mzn-stat: variables=806
%%%mzn-stat: propagators=486
%%%mzn-stat: failures=13
%%%mzn-stat: propagations=11278
%%%mzn-stat: nogoods=13
%%%mzn-stat: numAtomicConstraintsPropagated=0
%%%mzn-stat: allDifferentNumber1PropagationsTotal=498
%%%mzn-stat: allDifferentNumber1PropagationsThatFoundConflict=4
%%%mzn-stat: allDifferentNumber1PropagationsThatPruned=269
%%%mzn-stat: allDifferentNumber1TotalValuesPruned=1932
%%%mzn-stat: allDifferentNumber1TotalHallSetSizeConflict=9
%%%mzn-stat: allDifferentNumber1NumberOfConflicts=4
%%%mzn-stat: allDifferentNumber1MaxHallSetSizeConflict=3
%%%mzn-stat: allDifferentNumber1TotalPruningHallSetSize=16871
%%%mzn-stat: allDifferentNumber1NumberOfPruningExplanations=1932
%%%mzn-stat: allDifferentNumber1MaxPruningHallSetSize=49
%%%mzn-stat: allDifferentNumber1TotalFixedEdgesAtConflict=188
%%%mzn-stat: allDifferentNumber1TotalVarsInvolvedInPruning=1384
%%%mzn-stat: allDifferentNumber1MaxValuesPrunedFromSingleVar=9
%%%mzn-stat: allDifferentNumber1TotalSccSizeAtPruning=3074
%%%mzn-stat: allDifferentNumber1NumberOfSccPruningCalls=269
%%%mzn-stat: circuitNumber2PropagationsThatFoundConflict=8
%%%mzn-stat: circuitNumber2TotalFixedEdgesAtConflict=387
%%%mzn-stat: circuitNumber2NumberOfConflicts=8
%%%mzn-stat: circuitNumber2PropagationsThatPruned=36
%%%mzn-stat: circuitNumber2PropagationsTotal=271
%%%mzn-stat: AverageConflictSize=19.923076923076923
%%%mzn-stat: NumUnitNogoodsLearned=0
%%%mzn-stat: AverageLearnedNogoodLength=35.53846153846154
%%%mzn-stat: AverageBacktrackAmount=0
%%%mzn-stat: AverageLbd=13.846153846153847
%%%mzn-stat: 2AutonomousSearchNumBackupCalled=3184
%%%mzn-stat: 2AutonomousSearchNumPredicatesRemoved=0
%%%mzn-stat: 2AutonomousSearchNumCalls=3196
%%%mzn-stat: 2AutonomousSearchNumPredicatesAdded=1515
%%%mzn-stat: 2AutonomousSearchAverageSizeOfHeap=1.9239674593241551
%%%mzn-stat: 2AutonomousSearchNumAssignedPredicatesEncountered=6149
%%%mzn-stat-end
maxleg = 793;
succ = array1d(1..50,[9, 6, 1, 33, 7, 27, 11, 43, 18, 15, 8, 13, 14, 42, 19, 30, 20, 28, 35, 22, 4, 46, 37, 23, 17, 31, 29, 45, 50, 2, 21, 12, 49, 47, 38, 32, 40, 36, 5, 25, 24, 16, 48, 34, 39, 3, 26, 10, 41, 44]);
% time elapsed: 0.28 s
----------
%%%mzn-stat: initTime=0.005352332
%%%mzn-stat: objective=788
%%%mzn-stat: nodes=3654
%%%mzn-stat: restarts=0
%%%mzn-stat: peakDepth=311
%%%mzn-stat: solveTime=0.026982498
%%%mzn-stat: variables=806
%%%mzn-stat: propagators=486
%%%mzn-stat: failures=16
%%%mzn-stat: propagations=12314
%%%mzn-stat: nogoods=16
%%%mzn-stat: numAtomicConstraintsPropagated=0
%%%mzn-stat: allDifferentNumber1PropagationsTotal=540
%%%mzn-stat: allDifferentNumber1PropagationsThatFoundConflict=4
%%%mzn-stat: allDifferentNumber1PropagationsThatPruned=296
%%%mzn-stat: allDifferentNumber1TotalValuesPruned=2120
%%%mzn-stat: allDifferentNumber1TotalHallSetSizeConflict=9
%%%mzn-stat: allDifferentNumber1NumberOfConflicts=4
%%%mzn-stat: allDifferentNumber1MaxHallSetSizeConflict=3
%%%mzn-stat: allDifferentNumber1TotalPruningHallSetSize=19928
%%%mzn-stat: allDifferentNumber1NumberOfPruningExplanations=2120
%%%mzn-stat: allDifferentNumber1MaxPruningHallSetSize=49
%%%mzn-stat: allDifferentNumber1TotalFixedEdgesAtConflict=188
%%%mzn-stat: allDifferentNumber1TotalVarsInvolvedInPruning=1500
%%%mzn-stat: allDifferentNumber1MaxValuesPrunedFromSingleVar=9
%%%mzn-stat: allDifferentNumber1TotalSccSizeAtPruning=3498
%%%mzn-stat: allDifferentNumber1NumberOfSccPruningCalls=296
%%%mzn-stat: circuitNumber2PropagationsThatFoundConflict=11
%%%mzn-stat: circuitNumber2TotalFixedEdgesAtConflict=527
%%%mzn-stat: circuitNumber2NumberOfConflicts=11
%%%mzn-stat: circuitNumber2PropagationsThatPruned=46
%%%mzn-stat: circuitNumber2PropagationsTotal=299
%%%mzn-stat: AverageConflictSize=18.0625
%%%mzn-stat: NumUnitNogoodsLearned=0
%%%mzn-stat: AverageLearnedNogoodLength=34.4375
%%%mzn-stat: AverageBacktrackAmount=0
%%%mzn-stat: AverageLbd=12.75
%%%mzn-stat: 2AutonomousSearchNumBackupCalled=3419
%%%mzn-stat: 2AutonomousSearchNumPredicatesRemoved=0
%%%mzn-stat: 2AutonomousSearchNumCalls=3432
%%%mzn-stat: 2AutonomousSearchNumPredicatesAdded=1992
%%%mzn-stat: 2AutonomousSearchAverageSizeOfHeap=2.1197552447552446
%%%mzn-stat: 2AutonomousSearchNumAssignedPredicatesEncountered=7275
%%%mzn-stat-end
maxleg = 788;
succ = array1d(1..50,[9, 6, 1, 33, 7, 27, 11, 43, 18, 15, 23, 13, 14, 42, 28, 30, 19, 48, 35, 17, 4, 46, 20, 16, 45, 44, 29, 3, 50, 2, 21, 12, 49, 47, 38, 34, 40, 36, 5, 25, 24, 8, 22, 10, 39, 37, 26, 31, 41, 32]);
% time elapsed: 0.28 s
----------
==========
% time elapsed: 0.28 s
%%%mzn-stat: initTime=0.005352332
%%%mzn-stat: objective=788
%%%mzn-stat: nodes=3654
%%%mzn-stat: restarts=0
%%%mzn-stat: peakDepth=311
%%%mzn-stat: solveTime=0.027149534
%%%mzn-stat: variables=806
%%%mzn-stat: propagators=486
%%%mzn-stat: failures=17
%%%mzn-stat: propagations=12443
%%%mzn-stat: nogoods=17
%%%mzn-stat: numAtomicConstraintsPropagated=0
%%%mzn-stat: allDifferentNumber1PropagationsTotal=541
%%%mzn-stat: allDifferentNumber1PropagationsThatFoundConflict=5
%%%mzn-stat: allDifferentNumber1PropagationsThatPruned=296
%%%mzn-stat: allDifferentNumber1TotalValuesPruned=2120
%%%mzn-stat: allDifferentNumber1TotalHallSetSizeConflict=52
%%%mzn-stat: allDifferentNumber1NumberOfConflicts=5
%%%mzn-stat: allDifferentNumber1MaxHallSetSizeConflict=43
%%%mzn-stat: allDifferentNumber1TotalPruningHallSetSize=19928
%%%mzn-stat: allDifferentNumber1NumberOfPruningExplanations=2120
%%%mzn-stat: allDifferentNumber1MaxPruningHallSetSize=49
%%%mzn-stat: allDifferentNumber1TotalFixedEdgesAtConflict=190
%%%mzn-stat: allDifferentNumber1TotalVarsInvolvedInPruning=1500
%%%mzn-stat: allDifferentNumber1MaxValuesPrunedFromSingleVar=9
%%%mzn-stat: allDifferentNumber1TotalSccSizeAtPruning=3498
%%%mzn-stat: allDifferentNumber1NumberOfSccPruningCalls=296
%%%mzn-stat: circuitNumber2PropagationsThatFoundConflict=11
%%%mzn-stat: circuitNumber2TotalFixedEdgesAtConflict=527
%%%mzn-stat: circuitNumber2NumberOfConflicts=11
%%%mzn-stat: circuitNumber2PropagationsThatPruned=46
%%%mzn-stat: circuitNumber2PropagationsTotal=299
%%%mzn-stat: AverageConflictSize=18.294117647058822
%%%mzn-stat: NumUnitNogoodsLearned=1
%%%mzn-stat: AverageLearnedNogoodLength=32.470588235294116
%%%mzn-stat: AverageBacktrackAmount=0
%%%mzn-stat: AverageLbd=12.058823529411764
%%%mzn-stat: 2AutonomousSearchNumBackupCalled=3419
%%%mzn-stat: 2AutonomousSearchNumPredicatesRemoved=0
%%%mzn-stat: 2AutonomousSearchNumCalls=3432
%%%mzn-stat: 2AutonomousSearchNumPredicatesAdded=2232
%%%mzn-stat: 2AutonomousSearchAverageSizeOfHeap=2.1197552447552446
%%%mzn-stat: 2AutonomousSearchNumAssignedPredicatesEncountered=7275
%%%mzn-stat-end
